
Gurobi 13.0.2 (win64) logging started Thu Jul 23 06:08:24 2026

Set parameter LogFile to value "E:\codes\ExactEBRP\results\gf_cplex_equivalent_gurobi_replica_round28\runs\stage2__tight_T_seed4101__c3_replica__300s\external\native_logs\R.0.1.0.0.0.1.1.0.1.0_lp.gurobi.log"
Gurobi Optimizer version 13.0.2 build v13.0.2rc1 (win64 - Windows 10.0 (19045.2))

CPU model: 12th Gen Intel(R) Core(TM) i7-12700KF, instruction set [SSE2|AVX|AVX2]
Thread count: 12 physical cores, 20 logical processors, using up to 1 threads

Non-default parameters:
TimeLimit  235.0698727
MIPGap  0
MIPGapAbs  0
LogToConsole  0
Threads  1

Optimize a model with 11897 rows, 3372 columns and 67355 nonzeros (Min)
Model fingerprint: 0x2fcb6a29
Model has 21 linear objective coefficients
Coefficient statistics:
  Matrix range     [7e-03, 2e+04]
  Objective range  [7e-03, 1e+00]
  Bounds range     [2e-01, 1e+03]
  RHS range        [2e-01, 5e+04]

Presolve removed 1178 rows and 102 columns
Presolve time: 0.03s
Presolved: 10719 rows, 3271 columns, 62172 nonzeros

Iteration    Objective       Primal Inf.    Dual Inf.      Time
       0    2.9487988e-01   5.980670e+02   0.000000e+00      0s
    3107    3.9801047e-01   0.000000e+00   0.000000e+00      0s

Solved in 3107 iterations and 0.22 seconds (0.61 work units)
Optimal objective  3.980104687e-01

User-callback calls 3250, time in user-callback 0.00 sec
